
%FILE DATA:	Soccer Computational Problem for MiniZinc Models	%
%AUTHOR:	Jack Wall	%
%CONTACT:  	116397063@umail.ucc.ie			%
%LAST UPDATE:	03/19/2020, 19:31:31						%
%DESCRIPTION: 	229 games played with 43 games left				%


n=17; %number of teams

%Games to play
games=[|17,16|12,2|7,9|3,10|6,9|2,10|14,6|10,14|17,7|10,11|13,8|14,1|4,2|13,7|14,3|1,5|8,10|11,8|16,11|12,17|16,14|13,4|6,4|1,10|17,4|6,12|15,9|6,5|9,7|12,15|3,1|13,14|10,5|14,11|1,17|12,1|6,16|15,10|6,14|7,13|2,8|17,15|16,3|];

%Initial points
iPoints=[40,37,40,33,35,34,41,37,37,31,45,42,24,22,36,36,48];

%POSITION CONSTRAINTS
% [|teamID, operator, position|...]
% operators index:
%  1 for =  operator
%  2 for >  operator
%  3 for >= operator
%  4 for <  operator
%  5 for <= operator
positionConstraints=[|11,5,1|7,1,2|];